p edge 11 32
e 1 6
e 1 9
e 2 5
e 2 7
e 3 11
e 3 4
e 3 5
e 4 6
e 4 5
e 4 3
e 5 11
e 5 4
e 5 3
e 5 2
e 6 10
e 6 7
e 6 9
e 6 4
e 6 1
e 7 6
e 7 2
e 8 9
e 8 10
e 9 8
e 9 6
e 9 1
e 10 11
e 10 8
e 10 6
e 11 10
e 11 5
e 11 3
